\ENCODING=ISO-8859-1
\Problem name: ilog.cplex

Maximize
 obj: 845 x(0)#0 + 791 x(1)#1 + 1028 x(2)#2 + 822 x(3)#3 + 592 x(4)#4
      + 552 x(5)#5 + 757 x(6)#6 + 778 x(7)#7 + 771 x(8)#8 + 714 x(9)#9
      + 843 x(10)#10 + 909 x(11)#11 + 1080 x(12)#12 + 694 x(13)#13
      + 718 x(14)#14 + 581 x(15)#15 + 589 x(16)#16 + 1116 x(17)#17
      + 692 x(18)#18 + 957 x(19)#19 + 500 x(20)#20 + 981 x(21)#21
      + 998 x(22)#22 + 766 x(23)#23 + 787 x(24)#24 + 748 x(25)#25
      + 809 x(26)#26 + 940 x(27)#27 + 756 x(28)#28 + 942 x(29)#29
      + 826 x(30)#30 + 841 x(31)#31 + 760 x(32)#32 + 866 x(33)#33
      + 830 x(34)#34 + 721 x(35)#35 + 875 x(36)#36 + 675 x(37)#37
      + 588 x(38)#38 + 956 x(39)#39 + 691 x(40)#40 + 655 x(41)#41
      + 659 x(42)#42 + 786 x(43)#43 + 955 x(44)#44 + 683 x(45)#45
      + 861 x(46)#46 + 827 x(47)#47 + 1122 x(48)#48 + 840 x(49)#49
      + 825 x(50)#50 + 772 x(51)#51 + 671 x(52)#52 + 836 x(53)#53
      + 672 x(54)#54 + 859 x(55)#55 + 932 x(56)#56 + 927 x(57)#57
      + 582 x(58)#58 + 852 x(59)#59 + 870 x(60)#60 + 840 x(61)#61
      + 879 x(62)#62 + 808 x(63)#63 + 763 x(64)#64 + 714 x(65)#65
      + 722 x(66)#66 + 872 x(67)#67 + 780 x(68)#68 + 797 x(69)#69
      + 858 x(70)#70 + 771 x(71)#71 + 828 x(72)#72 + 608 x(73)#73
      + 859 x(74)#74 + 571 x(75)#75 + 720 x(76)#76 + 668 x(77)#77
      + 601 x(78)#78 + 905 x(79)#79 + 930 x(80)#80 + 602 x(81)#81
      + 706 x(82)#82 + 981 x(83)#83 + 872 x(84)#84 + 810 x(85)#85
      + 1067 x(86)#86 + 771 x(87)#87 + 758 x(88)#88 + 945 x(89)#89
      + 804 x(90)#90 + 698 x(91)#91 + 862 x(92)#92 + 666 x(93)#93
      + 728 x(94)#94 + 862 x(95)#95 + 901 x(96)#96 + 639 x(97)#97
      + 734 x(98)#98 + 826 x(99)#99
Subject To
 c1:  473 x(0)#0 + 329 x(1)#1 + 827 x(2)#2 + 739 x(3)#3 + 848 x(4)#4
      + 742 x(5)#5 + 101 x(6)#6 + 994 x(7)#7 + 385 x(8)#8 + 650 x(9)#9
      + 381 x(10)#10 + 968 x(11)#11 + 982 x(12)#12 + 632 x(13)#13
      + 521 x(14)#14 + 268 x(15)#15 + 904 x(16)#16 + 441 x(17)#17
      + 487 x(18)#18 + 740 x(19)#19 + 964 x(20)#20 + 917 x(21)#21
      + 480 x(22)#22 + 791 x(23)#23 + 544 x(24)#24 + 845 x(25)#25
      + 276 x(26)#26 + 32 x(27)#27 + 537 x(28)#28 + 818 x(29)#29 + 869 x(30)#30
      + 451 x(31)#31 + 201 x(32)#32 + 923 x(33)#33 + 300 x(34)#34
      + 420 x(35)#35 + 155 x(36)#36 + 912 x(37)#37 + 412 x(38)#38
      + 564 x(39)#39 + 503 x(40)#40 + 698 x(41)#41 + 79 x(42)#42 + 179 x(43)#43
      + 19 x(44)#44 + 583 x(45)#45 + 899 x(46)#46 + 780 x(47)#47 + 680 x(48)#48
      + 702 x(49)#49 + 573 x(50)#50 + 451 x(51)#51 + 320 x(52)#52 + 63 x(53)#53
      + 194 x(54)#54 + 511 x(55)#55 + 640 x(56)#56 + 672 x(57)#57
      + 463 x(58)#58 + 624 x(59)#59 + 618 x(60)#60 + 534 x(61)#61
      + 798 x(62)#62 + 255 x(63)#63 + 39 x(64)#64 + 522 x(65)#65 + 733 x(66)#66
      + 144 x(67)#67 + 662 x(68)#68 + 143 x(69)#69 + 205 x(70)#70 + 64 x(71)#71
      + 319 x(72)#72 + 765 x(73)#73 + 64 x(74)#74 + 94 x(75)#75 + 351 x(76)#76
      + 672 x(77)#77 + 744 x(78)#78 + 443 x(79)#79 + 577 x(80)#80
      + 917 x(81)#81 + 847 x(82)#82 + 657 x(83)#83 + 280 x(84)#84
      + 433 x(85)#85 + 730 x(86)#86 + 861 x(87)#87 + 31 x(88)#88 + 490 x(89)#89
      + 765 x(90)#90 + 732 x(91)#91 + 357 x(92)#92 + 218 x(93)#93
      + 661 x(94)#94 + 687 x(95)#95 + 626 x(96)#96 + 46 x(97)#97 + 607 x(98)#98
      + 902 x(99)#99 <= 26525
 c2:  386 x(0)#0 + 459 x(1)#1 + 939 x(2)#2 + 350 x(3)#3 + 219 x(4)#4
      + 700 x(5)#5 + 520 x(6)#6 + 466 x(7)#7 + 184 x(8)#8 + 291 x(9)#9
      + 806 x(10)#10 + 242 x(11)#11 + 155 x(12)#12 + 437 x(13)#13
      + 847 x(14)#14 + 910 x(15)#15 + 821 x(16)#16 + 828 x(17)#17
      + 715 x(18)#18 + 225 x(19)#19 + 566 x(20)#20 + 499 x(21)#21
      + 341 x(22)#22 + 982 x(23)#23 + 539 x(24)#24 + 883 x(25)#25
      + 761 x(26)#26 + 411 x(27)#27 + 210 x(28)#28 + 48 x(29)#29 + 441 x(30)#30
      + 504 x(31)#31 + 726 x(32)#32 + 667 x(33)#33 + 636 x(34)#34
      + 870 x(35)#35 + 818 x(36)#36 + 982 x(37)#37 + 46 x(38)#38 + 791 x(39)#39
      + 648 x(40)#40 + 617 x(41)#41 + 406 x(42)#42 + 753 x(43)#43
      + 815 x(44)#44 + 15 x(45)#45 + 450 x(46)#46 + 202 x(47)#47 + 606 x(48)#48
      + 295 x(49)#49 + 35 x(50)#50 + 651 x(51)#51 + 467 x(52)#52 + 531 x(53)#53
      + 160 x(54)#54 + 204 x(55)#55 + 170 x(56)#56 + 331 x(57)#57
      + 595 x(58)#58 + 683 x(59)#59 + 343 x(60)#60 + 480 x(61)#61
      + 477 x(62)#62 + 660 x(63)#63 + 74 x(64)#64 + 359 x(65)#65 + 514 x(66)#66
      + 432 x(67)#67 + 108 x(68)#68 + 563 x(69)#69 + 820 x(70)#70
      + 237 x(71)#71 + 93 x(72)#72 + 73 x(73)#73 + 824 x(74)#74 + 912 x(75)#75
      + 260 x(76)#76 + 338 x(77)#77 + 419 x(78)#78 + 269 x(79)#79
      + 219 x(80)#80 + 739 x(81)#81 + 539 x(82)#82 + 707 x(83)#83
      + 960 x(84)#84 + 588 x(85)#85 + 141 x(86)#86 + 976 x(87)#87
      + 180 x(88)#88 + 146 x(89)#89 + 994 x(90)#90 + 583 x(91)#91
      + 417 x(92)#92 + 764 x(93)#93 + 529 x(94)#94 + 364 x(95)#95
      + 510 x(96)#96 + 680 x(97)#97 + 122 x(98)#98 + 971 x(99)#99 <= 25120
 c3:  386 x(0)#0 + 260 x(1)#1 + 432 x(2)#2 + 20 x(3)#3 + 793 x(4)#4
      + 172 x(5)#5 + 68 x(6)#6 + 479 x(7)#7 + 34 x(8)#8 + 494 x(9)#9
      + 160 x(10)#10 + 823 x(11)#11 + 236 x(12)#12 + 775 x(13)#13
      + 410 x(14)#14 + 392 x(15)#15 + 412 x(16)#16 + 603 x(17)#17
      + 549 x(18)#18 + 848 x(19)#19 + 416 x(20)#20 + 999 x(21)#21
      + 751 x(22)#22 + 855 x(23)#23 + 592 x(24)#24 + 423 x(25)#25 + 61 x(26)#26
      + 46 x(27)#27 + 570 x(28)#28 + 790 x(29)#29 + 975 x(30)#30 + 481 x(31)#31
      + 18 x(32)#32 + 824 x(33)#33 + 354 x(34)#34 + 28 x(35)#35 + 475 x(36)#36
      + 905 x(37)#37 + 249 x(38)#38 + 878 x(39)#39 + 985 x(40)#40
      + 508 x(41)#41 + 426 x(42)#42 + 552 x(43)#43 + 386 x(44)#44
      + 107 x(45)#45 + 794 x(46)#46 + 996 x(47)#47 + 959 x(48)#48
      + 378 x(49)#49 + 296 x(50)#50 + 582 x(51)#51 + 254 x(52)#52
      + 274 x(53)#53 + 154 x(54)#54 + 299 x(55)#55 + 637 x(56)#56
      + 446 x(57)#57 + 419 x(58)#58 + 651 x(59)#59 + 711 x(60)#60
      + 399 x(61)#61 + 79 x(62)#62 + 81 x(63)#63 + 446 x(64)#64 + 176 x(65)#65
      + 939 x(66)#66 + 893 x(67)#67 + 556 x(68)#68 + 121 x(69)#69
      + 135 x(70)#70 + 821 x(71)#71 + 33 x(72)#72 + 36 x(73)#73 + 921 x(74)#74
      + 352 x(75)#75 + 851 x(76)#76 + 224 x(77)#77 + 329 x(78)#78
      + 702 x(79)#79 + 810 x(80)#80 + 417 x(81)#81 + 942 x(82)#82
      + 680 x(83)#83 + 687 x(84)#84 + 444 x(85)#85 + 523 x(86)#86
      + 307 x(87)#87 + 159 x(88)#88 + 923 x(89)#89 + 593 x(90)#90
      + 796 x(91)#91 + 843 x(92)#92 + 5 x(93)#93 + 11 x(94)#94 + 250 x(95)#95
      + 181 x(96)#96 + 635 x(97)#97 + 651 x(98)#98 + 758 x(99)#99 <= 24280
 c4:  674 x(0)#0 + 915 x(1)#1 + 64 x(2)#2 + 380 x(3)#3 + 170 x(4)#4
      + 436 x(5)#5 + 156 x(6)#6 + 630 x(7)#7 + 273 x(8)#8 + 398 x(9)#9
      + 687 x(10)#10 + 517 x(11)#11 + 547 x(12)#12 + 159 x(13)#13
      + 622 x(14)#14 + 623 x(15)#15 + 929 x(16)#16 + 996 x(17)#17
      + 441 x(18)#18 + 399 x(19)#19 + 302 x(20)#20 + 950 x(21)#21
      + 687 x(22)#22 + 143 x(23)#23 + 568 x(24)#24 + 424 x(25)#25
      + 770 x(26)#26 + 294 x(27)#27 + 39 x(28)#28 + 690 x(29)#29 + 370 x(30)#30
      + 441 x(31)#31 + 391 x(32)#32 + 935 x(33)#33 + 866 x(34)#34
      + 523 x(35)#35 + 461 x(36)#36 + 935 x(37)#37 + 596 x(38)#38
      + 468 x(39)#39 + 747 x(40)#40 + 452 x(41)#41 + 38 x(42)#42 + 811 x(43)#43
      + 988 x(44)#44 + 372 x(45)#45 + 425 x(46)#46 + 99 x(47)#47 + 654 x(48)#48
      + 739 x(49)#49 + 757 x(50)#50 + 687 x(51)#51 + 282 x(52)#52
      + 950 x(53)#53 + 455 x(54)#54 + 261 x(55)#55 + 709 x(56)#56
      + 487 x(57)#57 + 925 x(58)#58 + 643 x(59)#59 + 676 x(60)#60
      + 996 x(61)#61 + 855 x(62)#62 + 269 x(63)#63 + 186 x(64)#64
      + 846 x(65)#65 + 870 x(66)#66 + 505 x(67)#67 + 809 x(68)#68
      + 690 x(69)#69 + 281 x(70)#70 + 993 x(71)#71 + 289 x(72)#72
      + 458 x(73)#73 + 580 x(74)#74 + 310 x(75)#75 + 92 x(76)#76 + 601 x(77)#77
      + 783 x(78)#78 + 308 x(79)#79 + 453 x(80)#80 + 496 x(81)#81
      + 279 x(82)#82 + 410 x(83)#83 + 388 x(84)#84 + 51 x(85)#85 + 527 x(86)#86
      + 998 x(87)#87 + 11 x(88)#88 + 275 x(89)#89 + 308 x(90)#90 + 555 x(91)#91
      + 53 x(92)#92 + 145 x(93)#93 + 211 x(94)#94 + 9 x(95)#95 + 299 x(96)#96
      + 399 x(97)#97 + 667 x(98)#98 + 248 x(99)#99 <= 25265
 c5:  654 x(0)#0 + 567 x(1)#1 + 899 x(2)#2 + 772 x(3)#3 + 372 x(4)#4
      + 809 x(5)#5 + 473 x(6)#6 + 103 x(7)#7 + 123 x(8)#8 + 949 x(9)#9
      + 775 x(10)#10 + 658 x(11)#11 + 142 x(12)#12 + 644 x(13)#13
      + 614 x(14)#14 + 98 x(15)#15 + 515 x(16)#16 + 550 x(17)#17 + 647 x(18)#18
      + 410 x(19)#19 + 904 x(20)#20 + 723 x(21)#21 + 711 x(22)#22
      + 412 x(23)#23 + 969 x(24)#24 + 594 x(25)#25 + 726 x(26)#26
      + 711 x(27)#27 + 354 x(28)#28 + 827 x(29)#29 + 115 x(30)#30
      + 495 x(31)#31 + 276 x(32)#32 + 294 x(33)#33 + 553 x(34)#34
      + 815 x(35)#35 + 922 x(36)#36 + 448 x(37)#37 + 447 x(38)#38
      + 335 x(39)#39 + 881 x(40)#40 + 760 x(41)#41 + 594 x(42)#42
      + 997 x(43)#43 + 458 x(44)#44 + 806 x(45)#45 + 867 x(46)#46
      + 941 x(47)#47 + 326 x(48)#48 + 142 x(49)#49 + 745 x(50)#50
      + 529 x(51)#51 + 46 x(52)#52 + 783 x(53)#53 + 725 x(54)#54 + 191 x(55)#55
      + 527 x(56)#56 + 735 x(57)#57 + 799 x(58)#58 + 93 x(59)#59 + 968 x(60)#60
      + 450 x(61)#61 + 563 x(62)#62 + 813 x(63)#63 + 260 x(64)#64
      + 766 x(65)#65 + 459 x(66)#66 + 176 x(67)#67 + 21 x(68)#68 + 335 x(69)#69
      + 188 x(70)#70 + 276 x(71)#71 + 775 x(72)#72 + 12 x(73)#73 + 80 x(74)#74
      + 221 x(75)#75 + 591 x(76)#76 + 694 x(77)#77 + 406 x(78)#78
      + 957 x(79)#79 + 327 x(80)#80 + 692 x(81)#81 + 323 x(82)#82
      + 363 x(83)#83 + 244 x(84)#84 + 424 x(85)#85 + 671 x(86)#86
      + 460 x(87)#87 + 905 x(88)#88 + 662 x(89)#89 + 175 x(90)#90
      + 157 x(91)#91 + 907 x(92)#92 + 602 x(93)#93 + 398 x(94)#94
      + 899 x(95)#95 + 28 x(96)#96 + 47 x(97)#97 + 179 x(98)#98 + 585 x(99)#99
      <= 26205
 c6:  508 x(0)#0 + 215 x(1)#1 + 648 x(2)#2 + 95 x(3)#3 + 747 x(4)#4 + 78 x(5)#5
      + 952 x(6)#6 + 898 x(7)#7 + 191 x(8)#8 + 573 x(9)#9 + 94 x(10)#10
      + 752 x(11)#11 + 862 x(12)#12 + 463 x(13)#13 + 302 x(14)#14
      + 896 x(15)#15 + 66 x(16)#16 + 933 x(17)#17 + 132 x(18)#18 + 915 x(19)#19
      + 119 x(20)#20 + 570 x(21)#21 + 550 x(22)#22 + 573 x(23)#23
      + 933 x(24)#24 + 173 x(25)#25 + 962 x(26)#26 + 578 x(27)#27 + 78 x(28)#28
      + 906 x(29)#29 + 455 x(30)#30 + 280 x(31)#31 + 375 x(32)#32
      + 152 x(33)#33 + 581 x(34)#34 + 480 x(35)#35 + 119 x(36)#36 + 40 x(37)#37
      + 811 x(38)#38 + 340 x(39)#39 + 593 x(40)#40 + 418 x(41)#41
      + 829 x(42)#42 + 831 x(43)#43 + 41 x(44)#44 + 423 x(45)#45 + 713 x(46)#46
      + 88 x(47)#47 + 696 x(48)#48 + 615 x(49)#49 + 494 x(50)#50 + 308 x(51)#51
      + 719 x(52)#52 + 120 x(53)#53 + 963 x(54)#54 + 294 x(55)#55
      + 189 x(56)#56 + 299 x(57)#57 + 168 x(58)#58 + 728 x(59)#59
      + 209 x(60)#60 + 974 x(61)#61 + 912 x(62)#62 + 942 x(63)#63 + 71 x(64)#64
      + 225 x(65)#65 + 929 x(66)#66 + 783 x(67)#67 + 978 x(68)#68
      + 609 x(69)#69 + 673 x(70)#70 + 835 x(71)#71 + 821 x(72)#72 + 62 x(73)#73
      + 464 x(74)#74 + 987 x(75)#75 + 122 x(76)#76 + 405 x(77)#77
      + 238 x(78)#78 + 874 x(79)#79 + 846 x(80)#80 + 325 x(81)#81
      + 331 x(82)#82 + 287 x(83)#83 + 867 x(84)#84 + 842 x(85)#85
      + 336 x(86)#86 + 944 x(87)#87 + 347 x(88)#88 + 971 x(89)#89
      + 656 x(90)#90 + 358 x(91)#91 + 293 x(92)#92 + 52 x(93)#93 + 517 x(94)#94
      + 763 x(95)#95 + 498 x(96)#96 + 298 x(97)#97 + 205 x(98)#98
      + 180 x(99)#99 <= 25477
 c7:  252 x(0)#0 + 898 x(1)#1 + 130 x(2)#2 + 414 x(3)#3 + 587 x(4)#4
      + 352 x(5)#5 + 426 x(6)#6 + 906 x(7)#7 + 127 x(8)#8 + 177 x(9)#9
      + 202 x(10)#10 + 936 x(11)#11 + 613 x(12)#12 + 471 x(13)#13 + 19 x(14)#14
      + 92 x(15)#15 + 490 x(16)#16 + 968 x(17)#17 + 234 x(18)#18 + 659 x(19)#19
      + 696 x(20)#20 + 429 x(21)#21 + 793 x(22)#22 + 69 x(23)#23 + 275 x(24)#24
      + 875 x(25)#25 + 424 x(26)#26 + 143 x(27)#27 + 482 x(28)#28
      + 788 x(29)#29 + 648 x(30)#30 + 207 x(31)#31 + 174 x(32)#32
      + 259 x(33)#33 + 189 x(34)#34 + 551 x(35)#35 + 60 x(36)#36 + 457 x(37)#37
      + 97 x(38)#38 + 869 x(39)#39 + 154 x(40)#40 + 442 x(41)#41 + 280 x(42)#42
      + 161 x(43)#43 + 548 x(44)#44 + 710 x(45)#45 + 432 x(46)#46
      + 555 x(47)#47 + 660 x(48)#48 + 897 x(49)#49 + 108 x(50)#50
      + 551 x(51)#51 + 514 x(52)#52 + 930 x(53)#53 + 516 x(54)#54
      + 819 x(55)#55 + 937 x(56)#56 + 348 x(57)#57 + 127 x(58)#58
      + 458 x(59)#59 + 302 x(60)#60 + 894 x(61)#61 + 228 x(62)#62
      + 992 x(63)#63 + 582 x(64)#64 + 602 x(65)#65 + 739 x(66)#66
      + 460 x(67)#67 + 631 x(68)#68 + 256 x(69)#69 + 894 x(70)#70
      + 516 x(71)#71 + 138 x(72)#72 + 304 x(73)#73 + 558 x(74)#74
      + 644 x(75)#75 + 427 x(76)#76 + 786 x(77)#77 + 936 x(78)#78
      + 100 x(79)#79 + 449 x(80)#80 + 893 x(81)#81 + 516 x(82)#82
      + 708 x(83)#83 + 3 x(84)#84 + 585 x(85)#85 + 489 x(86)#86 + 393 x(87)#87
      + 601 x(88)#88 + 6 x(89)#89 + 2 x(90)#90 + 828 x(91)#91 + 694 x(92)#92
      + 369 x(93)#93 + 246 x(94)#94 + 23 x(95)#95 + 854 x(96)#96 + 849 x(97)#97
      + 547 x(98)#98 + 335 x(99)#99 <= 23982
 c8:  75 x(0)#0 + 253 x(1)#1 + 496 x(2)#2 + 311 x(3)#3 + 320 x(4)#4
      + 500 x(5)#5 + 469 x(6)#6 + 762 x(7)#7 + 946 x(8)#8 + 458 x(9)#9
      + 699 x(10)#10 + 511 x(11)#11 + 537 x(12)#12 + 925 x(13)#13
      + 435 x(14)#14 + 426 x(15)#15 + 586 x(16)#16 + 987 x(17)#17
      + 103 x(18)#18 + 471 x(19)#19 + 194 x(20)#20 + 89 x(21)#21 + 842 x(22)#22
      + 813 x(23)#23 + 850 x(24)#24 + 212 x(25)#25 + 201 x(26)#26
      + 915 x(27)#27 + 437 x(28)#28 + 248 x(29)#29 + 262 x(30)#30
      + 878 x(31)#31 + 930 x(32)#32 + 201 x(33)#33 + 545 x(34)#34 + 78 x(35)#35
      + 778 x(36)#36 + 237 x(37)#37 + 629 x(38)#38 + 564 x(39)#39
      + 489 x(40)#40 + 734 x(41)#41 + 83 x(42)#42 + 932 x(43)#43 + 677 x(44)#44
      + 361 x(45)#45 + 952 x(46)#46 + 977 x(47)#47 + 607 x(48)#48
      + 279 x(49)#49 + 319 x(50)#50 + 789 x(51)#51 + 412 x(52)#52
      + 470 x(53)#53 + 551 x(54)#54 + 253 x(55)#55 + 114 x(56)#56
      + 511 x(57)#57 + 619 x(58)#58 + 806 x(59)#59 + 619 x(60)#60 + 54 x(61)#61
      + 180 x(62)#62 + 699 x(63)#63 + 116 x(64)#64 + 636 x(65)#65
      + 247 x(66)#66 + 769 x(67)#67 + 666 x(68)#68 + 820 x(69)#69
      + 765 x(70)#70 + 376 x(71)#71 + 665 x(72)#72 + 15 x(73)#73 + 782 x(74)#74
      + 866 x(75)#75 + 923 x(76)#76 + 271 x(77)#77 + 37 x(78)#78 + 145 x(79)#79
      + 867 x(80)#80 + 926 x(81)#81 + 57 x(82)#82 + 978 x(83)#83 + 95 x(84)#84
      + 189 x(85)#85 + 913 x(86)#86 + 660 x(87)#87 + 823 x(88)#88
      + 371 x(89)#89 + 293 x(90)#90 + 31 x(91)#91 + 761 x(92)#92 + 83 x(93)#93
      + 941 x(94)#94 + 452 x(95)#95 + 543 x(96)#96 + 413 x(97)#97
      + 306 x(98)#98 + 928 x(99)#99 <= 25695
 c9:  903 x(0)#0 + 24 x(1)#1 + 950 x(2)#2 + 431 x(3)#3 + 768 x(4)#4
      + 876 x(5)#5 + 917 x(6)#6 + 411 x(7)#7 + 405 x(8)#8 + 825 x(9)#9
      + 536 x(10)#10 + 922 x(11)#11 + 852 x(12)#12 + 639 x(13)#13
      + 269 x(14)#14 + 728 x(15)#15 + 84 x(16)#16 + 220 x(17)#17 + 359 x(18)#18
      + 58 x(19)#19 + 232 x(20)#20 + 448 x(21)#21 + 743 x(22)#22 + 213 x(23)#23
      + 989 x(24)#24 + 928 x(25)#25 + 368 x(26)#26 + 466 x(27)#27
      + 813 x(28)#28 + 636 x(29)#29 + 387 x(30)#30 + 923 x(31)#31
      + 553 x(32)#32 + 25 x(33)#33 + 208 x(34)#34 + 10 x(35)#35 + 16 x(36)#36
      + 749 x(37)#37 + 175 x(38)#38 + 717 x(39)#39 + 323 x(40)#40
      + 895 x(41)#41 + 481 x(42)#42 + 739 x(43)#43 + 508 x(44)#44
      + 450 x(45)#45 + 402 x(46)#46 + 622 x(47)#47 + 825 x(48)#48
      + 942 x(49)#49 + 435 x(50)#50 + 678 x(51)#51 + 285 x(52)#52
      + 180 x(53)#53 + 520 x(54)#54 + 106 x(55)#55 + 345 x(56)#56
      + 973 x(57)#57 + 398 x(58)#58 + 581 x(59)#59 + 445 x(60)#60
      + 961 x(61)#61 + 722 x(62)#62 + 481 x(63)#63 + 448 x(64)#64
      + 632 x(65)#65 + 138 x(66)#66 + 599 x(67)#67 + 848 x(68)#68
      + 851 x(69)#69 + 741 x(70)#70 + 138 x(71)#71 + 715 x(72)#72
      + 520 x(73)#73 + 714 x(74)#74 + 78 x(75)#75 + 466 x(76)#76 + 176 x(77)#77
      + 401 x(78)#78 + 68 x(79)#79 + 840 x(80)#80 + 128 x(81)#81 + 98 x(82)#82
      + 498 x(83)#83 + 150 x(84)#84 + 258 x(85)#85 + 441 x(86)#86 + 52 x(87)#87
      + 100 x(88)#88 + 144 x(89)#89 + 311 x(90)#90 + 77 x(91)#91 + 415 x(92)#92
      + 134 x(93)#93 + 271 x(94)#94 + 228 x(95)#95 + 261 x(96)#96
      + 125 x(97)#97 + 757 x(98)#98 + 127 x(99)#99 <= 23511
 c10: 625 x(0)#0 + 414 x(1)#1 + 527 x(2)#2 + 776 x(3)#3 + 158 x(4)#4
      + 141 x(5)#5 + 489 x(6)#6 + 322 x(7)#7 + 814 x(8)#8 + 881 x(9)#9
      + 777 x(10)#10 + 833 x(11)#11 + 952 x(12)#12 + 492 x(13)#13
      + 887 x(14)#14 + 700 x(15)#15 + 147 x(16)#16 + 223 x(17)#17
      + 586 x(18)#18 + 988 x(19)#19 + 134 x(20)#20 + 164 x(21)#21
      + 106 x(22)#22 + 282 x(23)#23 + 923 x(24)#24 + 608 x(25)#25
      + 258 x(26)#26 + 843 x(27)#27 + 734 x(28)#28 + 878 x(29)#29
      + 961 x(30)#30 + 34 x(31)#31 + 161 x(32)#32 + 221 x(33)#33 + 245 x(34)#34
      + 632 x(35)#35 + 837 x(36)#36 + 596 x(37)#37 + 710 x(38)#38
      + 134 x(39)#39 + 560 x(40)#40 + 483 x(41)#41 + 235 x(42)#42
      + 279 x(43)#43 + 289 x(44)#44 + 146 x(45)#45 + 520 x(46)#46
      + 446 x(47)#47 + 357 x(48)#48 + 870 x(49)#49 + 994 x(50)#50
      + 979 x(51)#51 + 167 x(52)#52 + 758 x(53)#53 + 56 x(54)#54 + 660 x(55)#55
      + 89 x(56)#56 + 161 x(57)#57 + 402 x(58)#58 + 597 x(59)#59 + 685 x(60)#60
      + 742 x(61)#61 + 990 x(62)#62 + 968 x(63)#63 + 498 x(64)#64
      + 840 x(65)#65 + 102 x(66)#66 + 835 x(67)#67 + 703 x(68)#68
      + 200 x(69)#69 + 395 x(70)#70 + 620 x(71)#71 + 937 x(72)#72
      + 385 x(73)#73 + 743 x(74)#74 + 124 x(75)#75 + 356 x(76)#76
      + 137 x(77)#77 + 598 x(78)#78 + 406 x(79)#79 + 243 x(80)#80
      + 308 x(81)#81 + 506 x(82)#82 + 679 x(83)#83 + 456 x(84)#84
      + 752 x(85)#85 + 921 x(86)#86 + 955 x(87)#87 + 954 x(88)#88
      + 657 x(89)#89 + 455 x(90)#90 + 660 x(91)#91 + 233 x(92)#92
      + 962 x(93)#93 + 267 x(94)#94 + 89 x(95)#95 + 595 x(96)#96 + 392 x(97)#97
      + 35 x(98)#98 + 567 x(99)#99 <= 26096
Bounds
 0 <= x(0)#0 <= 1
 0 <= x(1)#1 <= 1
 0 <= x(2)#2 <= 1
 0 <= x(3)#3 <= 1
 0 <= x(4)#4 <= 1
 0 <= x(5)#5 <= 1
 0 <= x(6)#6 <= 1
 0 <= x(7)#7 <= 1
 0 <= x(8)#8 <= 1
 0 <= x(9)#9 <= 1
 0 <= x(10)#10 <= 1
 0 <= x(11)#11 <= 1
 0 <= x(12)#12 <= 1
 0 <= x(13)#13 <= 1
 0 <= x(14)#14 <= 1
 0 <= x(15)#15 <= 1
 0 <= x(16)#16 <= 1
 0 <= x(17)#17 <= 1
 0 <= x(18)#18 <= 1
 0 <= x(19)#19 <= 1
 0 <= x(20)#20 <= 1
 0 <= x(21)#21 <= 1
 0 <= x(22)#22 <= 1
 0 <= x(23)#23 <= 1
 0 <= x(24)#24 <= 1
 0 <= x(25)#25 <= 1
 0 <= x(26)#26 <= 1
 0 <= x(27)#27 <= 1
 0 <= x(28)#28 <= 1
 0 <= x(29)#29 <= 1
 0 <= x(30)#30 <= 1
 0 <= x(31)#31 <= 1
 0 <= x(32)#32 <= 1
 0 <= x(33)#33 <= 1
 0 <= x(34)#34 <= 1
 0 <= x(35)#35 <= 1
 0 <= x(36)#36 <= 1
 0 <= x(37)#37 <= 1
 0 <= x(38)#38 <= 1
 0 <= x(39)#39 <= 1
 0 <= x(40)#40 <= 1
 0 <= x(41)#41 <= 1
 0 <= x(42)#42 <= 1
 0 <= x(43)#43 <= 1
 0 <= x(44)#44 <= 1
 0 <= x(45)#45 <= 1
 0 <= x(46)#46 <= 1
 0 <= x(47)#47 <= 1
 0 <= x(48)#48 <= 1
 0 <= x(49)#49 <= 1
 0 <= x(50)#50 <= 1
 0 <= x(51)#51 <= 1
 0 <= x(52)#52 <= 1
 0 <= x(53)#53 <= 1
 0 <= x(54)#54 <= 1
 0 <= x(55)#55 <= 1
 0 <= x(56)#56 <= 1
 0 <= x(57)#57 <= 1
 0 <= x(58)#58 <= 1
 0 <= x(59)#59 <= 1
 0 <= x(60)#60 <= 1
 0 <= x(61)#61 <= 1
 0 <= x(62)#62 <= 1
 0 <= x(63)#63 <= 1
 0 <= x(64)#64 <= 1
 0 <= x(65)#65 <= 1
 0 <= x(66)#66 <= 1
 0 <= x(67)#67 <= 1
 0 <= x(68)#68 <= 1
 0 <= x(69)#69 <= 1
 0 <= x(70)#70 <= 1
 0 <= x(71)#71 <= 1
 0 <= x(72)#72 <= 1
 0 <= x(73)#73 <= 1
 0 <= x(74)#74 <= 1
 0 <= x(75)#75 <= 1
 0 <= x(76)#76 <= 1
 0 <= x(77)#77 <= 1
 0 <= x(78)#78 <= 1
 0 <= x(79)#79 <= 1
 0 <= x(80)#80 <= 1
 0 <= x(81)#81 <= 1
 0 <= x(82)#82 <= 1
 0 <= x(83)#83 <= 1
 0 <= x(84)#84 <= 1
 0 <= x(85)#85 <= 1
 0 <= x(86)#86 <= 1
 0 <= x(87)#87 <= 1
 0 <= x(88)#88 <= 1
 0 <= x(89)#89 <= 1
 0 <= x(90)#90 <= 1
 0 <= x(91)#91 <= 1
 0 <= x(92)#92 <= 1
 0 <= x(93)#93 <= 1
 0 <= x(94)#94 <= 1
 0 <= x(95)#95 <= 1
 0 <= x(96)#96 <= 1
 0 <= x(97)#97 <= 1
 0 <= x(98)#98 <= 1
 0 <= x(99)#99 <= 1
Generals
 x(0)#0  x(1)#1  x(2)#2  x(3)#3  x(4)#4  x(5)#5  x(6)#6  x(7)#7  x(8)#8 
 x(9)#9  x(10)#10  x(11)#11  x(12)#12  x(13)#13  x(14)#14  x(15)#15  x(16)#16 
 x(17)#17  x(18)#18  x(19)#19  x(20)#20  x(21)#21  x(22)#22  x(23)#23 
 x(24)#24  x(25)#25  x(26)#26  x(27)#27  x(28)#28  x(29)#29  x(30)#30 
 x(31)#31  x(32)#32  x(33)#33  x(34)#34  x(35)#35  x(36)#36  x(37)#37 
 x(38)#38  x(39)#39  x(40)#40  x(41)#41  x(42)#42  x(43)#43  x(44)#44 
 x(45)#45  x(46)#46  x(47)#47  x(48)#48  x(49)#49  x(50)#50  x(51)#51 
 x(52)#52  x(53)#53  x(54)#54  x(55)#55  x(56)#56  x(57)#57  x(58)#58 
 x(59)#59  x(60)#60  x(61)#61  x(62)#62  x(63)#63  x(64)#64  x(65)#65 
 x(66)#66  x(67)#67  x(68)#68  x(69)#69  x(70)#70  x(71)#71  x(72)#72 
 x(73)#73  x(74)#74  x(75)#75  x(76)#76  x(77)#77  x(78)#78  x(79)#79 
 x(80)#80  x(81)#81  x(82)#82  x(83)#83  x(84)#84  x(85)#85  x(86)#86 
 x(87)#87  x(88)#88  x(89)#89  x(90)#90  x(91)#91  x(92)#92  x(93)#93 
 x(94)#94  x(95)#95  x(96)#96  x(97)#97  x(98)#98  x(99)#99 
End
